NiC4S4
14.63
    0.86602540400000005   -0.50000000000000000    0.00000000000000000
    0.86602540400000005    0.50000000000000000    0.00000000000000000
    0.00000000000000000    0.00000000000000000    1.02529049900000002
 Ni C S
 3 12 12
Selective Dynamics
Direct
   0.50000000000000000    0.50000000000000000    0.50000000000000000 T T T #1:Ni1
   0.50000000000000000    0.00000000000000000    0.50000000000000000 T T T #2:Ni2
   0.00000000000000000    0.50000000000000000    0.50000000000000000 T F T #3:Ni3
   0.23763955300000000    0.42902711300000002    0.50000000000000000 T T T #4:C1
   0.23763955300000000    0.33333333300000001    0.50000000000000000 T T T #5:C2
   0.33333333300000001    0.23763955300000000    0.50000000000000000 T T T #6:C3
   0.42902711300000002    0.23763955300000000    0.50000000000000000 T T T #7:C4
   0.42902711300000002    0.33333333300000001    0.50000000000000000 T T T #8:C5
   0.33333333300000001    0.42902711300000002    0.50000000000000000 T T T #9:C6
  -0.23763955300000000   -0.42902711300000002    0.50000000000000000 T T T #10:C7
  -0.23763955300000000   -0.33333333300000001    0.50000000000000000 T T T #11:C8
  -0.33333333300000001   -0.23763955300000000    0.50000000000000000 T T T #12:C9
  -0.42902711300000002   -0.23763955300000000    0.50000000000000000 T T T #13:C10
  -0.42902711300000002   -0.33333333300000001    0.50000000000000000 T T T #14:C11
  -0.33333333300000001   -0.42902711300000002    0.50000000000000000 T T T #15:C12
   0.11323764000000000    0.55342902699999996    0.50000000000000000 T T T #16:S1
   0.11323764000000000    0.33333333300000001    0.50000000000000000 T T T #17:S2
   0.33333333300000001    0.11323764000000000    0.50000000000000000 T T T #18:S3
   0.55342902699999996    0.11323764000000000    0.50000000000000000 T T T #19:S4
   0.55342902699999996    0.33333333300000001    0.50000000000000000 T T T #20:S5
   0.33333333300000001    0.55342902699999996    0.50000000000000000 T T T #21:S6
  -0.11323764000000000   -0.55342902699999996    0.50000000000000000 T T T #22:S7
  -0.11323764000000000   -0.33333333300000001    0.50000000000000000 T T T #23:S8
  -0.33333333300000001   -0.11323764000000000    0.50000000000000000 T T T #24:S9
  -0.55342902699999996   -0.11323764000000000    0.50000000000000000 T T T #25:S10
  -0.55342902699999996   -0.33333333300000001    0.50000000000000000 T T T #26:S11
  -0.33333333300000001   -0.55342902699999996    0.50000000000000000 T T T #27:S12
