Graphene
0    ! number of k points
Monkhorst-pack
30 30 1
0 0 0

