C:graphene
2.47
0.866025  -0.50000 0.000000
0.866025  0.50000 0.000000
0.000000 0.000000 10.000000
C
2
Selective Dynamics
DIRECT
0.333333 0.333333 0.000000  T T T
0.666667 0.666667 0.000000  T T T
