FePc                                    
   1.00000000000000     
    20.0000000000000000    0.0000000000000000    0.0000000000000000
     0.0000000000000000   20.0000000000000000    0.0000000000000000
     0.0000000000000000    0.0000000000000000   20.0000000000000000
   C    Fe   H    N 
    32     1    16     8
Selective dynamics
Direct
  0.1362036989956494  0.0552692292217493  0.0000000000000000   T   T   T
  0.2050800706767476  0.0348757867600226  0.0000000000000000   T   T   T
  0.2642020159712474  0.0709072792541197  0.0000000000000000   T   T   T
  0.3233130623805934  0.0349754899477177  0.0000000000000000   T   T   T
  0.1362036989956494  0.9447307707782507  0.0000000000000000   T   T   T
  0.2050800706767476  0.9651242132399773  0.0000000000000000   T   T   T
  0.2642020159712474  0.9290927207458805  0.0000000000000000   T   T   T
  0.3233130623805934  0.9650245100522823  0.0000000000000000   T   T   T
  0.9447307707782507  0.1362036989956494  0.0000000000000000   T   T   T
  0.9651242132399773  0.2050800706767476  0.0000000000000000   T   T   T
  0.9290927207458805  0.2642020159712474  0.0000000000000000   T   T   T
  0.9650245100522823  0.3233130623805934  0.0000000000000000   T   T   T
  0.0552692292217493  0.1362036989956494  0.0000000000000000   T   T   T
  0.0348757867600226  0.2050800706767476  0.0000000000000000   T   T   T
  0.0709072792541197  0.2642020159712474  0.0000000000000000   T   T   T
  0.0349754899477177  0.3233130623805934  0.0000000000000000   T   T   T
  0.0552692292217493  0.8637963010043508  0.0000000000000000   T   T   T
  0.0348757867600226  0.7949199293232523  0.0000000000000000   T   T   T
  0.0709072792541197  0.7357979840287525  0.0000000000000000   T   T   T
  0.0349754899477177  0.6766869376194068  0.0000000000000000   T   T   T
  0.9447307707782507  0.8637963010043508  0.0000000000000000   T   T   T
  0.9651242132399773  0.7949199293232523  0.0000000000000000   T   T   T
  0.9290927207458805  0.7357979840287525  0.0000000000000000   T   T   T
  0.9650245100522823  0.6766869376194068  0.0000000000000000   T   T   T
  0.8637963010043508  0.9447307707782507  0.0000000000000000   T   T   T
  0.7949199293232523  0.9651242132399773  0.0000000000000000   T   T   T
  0.7357979840287525  0.9290927207458805  0.0000000000000000   T   T   T
  0.6766869376194068  0.9650245100522823  0.0000000000000000   T   T   T
  0.8637963010043508  0.0552692292217493  0.0000000000000000   T   T   T
  0.7949199293232523  0.0348757867600226  0.0000000000000000   T   T   T
  0.7357979840287525  0.0709072792541197  0.0000000000000000   T   T   T
  0.6766869376194068  0.0349754899477177  0.0000000000000000   T   T   T
  0.0000000000000000  0.0000000000000000  0.0000000000000000   F   F   F
  0.2633350765242696  0.1256418525969154  0.0000000000000000   T   T   T
  0.3711508880225069  0.0615926530421711  0.0000000000000000   T   T   T
  0.2633350765242696  0.8743581474030847  0.0000000000000000   T   T   T
  0.3711508880225069  0.9384073469578288  0.0000000000000000   T   T   T
  0.8743581474030847  0.2633350765242696  0.0000000000000000   T   T   T
  0.9384073469578288  0.3711508880225069  0.0000000000000000   T   T   T
  0.1256418525969154  0.2633350765242696  0.0000000000000000   T   T   T
  0.0615926530421711  0.3711508880225069  0.0000000000000000   T   T   T
  0.1256418525969154  0.7366649234757303  0.0000000000000000   T   T   T
  0.0615926530421711  0.6288491119774930  0.0000000000000000   T   T   T
  0.8743581474030847  0.7366649234757303  0.0000000000000000   T   T   T
  0.9384073469578288  0.6288491119774930  0.0000000000000000   T   T   T
  0.7366649234757303  0.8743581474030847  0.0000000000000000   T   T   T
  0.6288491119774930  0.9384073469578288  0.0000000000000000   T   T   T
  0.7366649234757303  0.1256418525969154  0.0000000000000000   T   T   T
  0.6288491119774930  0.0615926530421711  0.0000000000000000   T   T   T
  0.0950616253302948  0.0000000000000000  0.0000000000000000   T   T   T
  0.1181891760931488  0.1181891760931488  0.0000000000000000   T   T   T
  0.0000000000000000  0.0950616253302948  0.0000000000000000   T   T   T
  0.8818108239068513  0.1181891760931488  0.0000000000000000   T   T   T
  0.0000000000000000  0.9049383746697052  0.0000000000000000   T   T   T
  0.1181891760931488  0.8818108239068513  0.0000000000000000   T   T   T
  0.9049383746697052  0.0000000000000000  0.0000000000000000   T   T   T
  0.8818108239068513  0.8818108239068513  0.0000000000000000   T   T   T
 
  0.00000000E+00  0.00000000E+00  0.00000000E+00
  0.00000000E+00  0.00000000E+00  0.00000000E+00
  0.00000000E+00  0.00000000E+00  0.00000000E+00
  0.00000000E+00  0.00000000E+00  0.00000000E+00
  0.00000000E+00  0.00000000E+00  0.00000000E+00
  0.00000000E+00  0.00000000E+00  0.00000000E+00
  0.00000000E+00  0.00000000E+00  0.00000000E+00
  0.00000000E+00  0.00000000E+00  0.00000000E+00
  0.00000000E+00  0.00000000E+00  0.00000000E+00
  0.00000000E+00  0.00000000E+00  0.00000000E+00
  0.00000000E+00  0.00000000E+00  0.00000000E+00
  0.00000000E+00  0.00000000E+00  0.00000000E+00
  0.00000000E+00  0.00000000E+00  0.00000000E+00
  0.00000000E+00  0.00000000E+00  0.00000000E+00
  0.00000000E+00  0.00000000E+00  0.00000000E+00
  0.00000000E+00  0.00000000E+00  0.00000000E+00
  0.00000000E+00  0.00000000E+00  0.00000000E+00
  0.00000000E+00  0.00000000E+00  0.00000000E+00
  0.00000000E+00  0.00000000E+00  0.00000000E+00
  0.00000000E+00  0.00000000E+00  0.00000000E+00
  0.00000000E+00  0.00000000E+00  0.00000000E+00
  0.00000000E+00  0.00000000E+00  0.00000000E+00
  0.00000000E+00  0.00000000E+00  0.00000000E+00
  0.00000000E+00  0.00000000E+00  0.00000000E+00
  0.00000000E+00  0.00000000E+00  0.00000000E+00
  0.00000000E+00  0.00000000E+00  0.00000000E+00
  0.00000000E+00  0.00000000E+00  0.00000000E+00
  0.00000000E+00  0.00000000E+00  0.00000000E+00
  0.00000000E+00  0.00000000E+00  0.00000000E+00
  0.00000000E+00  0.00000000E+00  0.00000000E+00
  0.00000000E+00  0.00000000E+00  0.00000000E+00
  0.00000000E+00  0.00000000E+00  0.00000000E+00
  0.00000000E+00  0.00000000E+00  0.00000000E+00
  0.00000000E+00  0.00000000E+00  0.00000000E+00
  0.00000000E+00  0.00000000E+00  0.00000000E+00
  0.00000000E+00  0.00000000E+00  0.00000000E+00
  0.00000000E+00  0.00000000E+00  0.00000000E+00
  0.00000000E+00  0.00000000E+00  0.00000000E+00
  0.00000000E+00  0.00000000E+00  0.00000000E+00
  0.00000000E+00  0.00000000E+00  0.00000000E+00
  0.00000000E+00  0.00000000E+00  0.00000000E+00
  0.00000000E+00  0.00000000E+00  0.00000000E+00
  0.00000000E+00  0.00000000E+00  0.00000000E+00
  0.00000000E+00  0.00000000E+00  0.00000000E+00
  0.00000000E+00  0.00000000E+00  0.00000000E+00
  0.00000000E+00  0.00000000E+00  0.00000000E+00
  0.00000000E+00  0.00000000E+00  0.00000000E+00
  0.00000000E+00  0.00000000E+00  0.00000000E+00
  0.00000000E+00  0.00000000E+00  0.00000000E+00
  0.00000000E+00  0.00000000E+00  0.00000000E+00
  0.00000000E+00  0.00000000E+00  0.00000000E+00
  0.00000000E+00  0.00000000E+00  0.00000000E+00
  0.00000000E+00  0.00000000E+00  0.00000000E+00
  0.00000000E+00  0.00000000E+00  0.00000000E+00
  0.00000000E+00  0.00000000E+00  0.00000000E+00
  0.00000000E+00  0.00000000E+00  0.00000000E+00
  0.00000000E+00  0.00000000E+00  0.00000000E+00
