System = CoMonolayer
ISTART = 0
ISMEAR = 0
ENCUT = 400
PREC = Accurate
ISPIN = 2
#EDIFF=5e-06
#NELMIN=8
IBRION =  -1
EDIFFG=-0.001
NSW= 0
#ADDGRID = .TRUE.
#LREAL = Auto
#POTIM=0.1
#NFREE=15
#AMIX=0.1
#BMIX=0.00001
#AMIX_MAG=0.4
#BMIX_MAG=0.00001
##MAGMOM= 32*0  2  46*0    72*0   8*0   240*0
#NELMDL=-8
NELM = 300
NCORE = 2
#NEDOS = 30001
#LVHAR = .TRUE.
#LUSE_VDW = .TRUE.
#AGGAC = 0.0000
#GGA = MK
#PARAM1 = 0.1234
#PARAM2 = 1.0000
LORBIT=12         !calculate projected DOS
#NEDOS=600
#LPARD=.TRUE.
#EINT=-0.0973 0.110271
#NBMOD=-3
LVHAR = .TRUE.
