System = FePc
ISTART = 0
ISMEAR = 0
SIGMA=0.05

IDIPOL = 4
ENCUT = 400
PREC = NORMAL
RWIGS=   .863 1.302 .370 .741
ISPIN= 2

LORBIT=2         !calculate projected DOS
LREAL = Auto
NSW=0
EDIFF=5E-06
IBRION=-1
NPAR=4


NELMIN=8
MAXMIX=80
LMAXMIX=4

LDAU=.TRUE.
LDATYPE=2
LDAUL= -1 2 -1 -1
LDAUU= 0.0 2.0 0.0 0.0
LDAUJ= 0.0 1.0 0.0 0.0
LDAUPRINT=2


#LPARD=.TRUE.
#IBAND=94
#NBMOD=-3

