H                                       
   1.00000000000000     
    25.0000000000000000    0.0000000000000000    0.0000000000000000
     0.0000000000000000   25.0000000000000000    0.0000000000000000
     0.0000000000000000    0.0000000000000000   25.0000000000000000
   H 
     1
Direct
  0.5000000000000000  0.5000000000000000  0.5000000000000000
 
